100
32
25
9
1
19
9
19
26
7
32
20
10
17
15
4
4
23
7
1
17
4
1
2
2
2
2
2
1
2
16
1
1
3
3
2
1
18
2
3
1
2
4
5
2
1
2
1
2
4
4
17
1
1
1
2
2
21
3
4
1
1
3
1
2
16
5
4
1
19
2
3
5
1
1
1
1
18
3
2
7
2
2
18
5
2
3
3
6
18
3
1
3
1
1
21
1
1
1
1
2
1